5 5
4 65 2 35 1 35 3 76 0 85
2 48 1 8 4 27 3 9 0 92
2 30 4 14 1 23 0 29 3 26
0 86 3 15 2 73 4 90 1 81
4 73 2 67 3 16 1 13 0 90
-1
0 1 5
0 2 3 4 5
0 1 2 4 5
0 1 2 3 5
0 1 2 3 5
-2
67 316
69 106 138 193
44 50 123 155
120 152 247 514
76 175 176 315

399 8
15 9 13 4 24
6 2 12 23 19
5 10 1 17 21
8 16 3 14 22
0 7 11 20 18
